NAME : XML100_2371_01
DIMENSION : 101
NB_CLUSTERS : 4
CLUSTERING_ALG : KMedoids
CLUSTERING_PARAMS : k(3)
CLUSTERS
1 0
2 1 3 5 9 22 27 28 34 39 42 44 48 50 54 55 56 59 60 64 68 69 73 77 79 81 84 86 87 88 89 94 95 96 98 99
3 4 6 8 10 11 12 18 21 24 25 26 29 31 32 33 35 36 37 43 47 49 58 65 67 71 74 75 76 80 82 83 85 90 92 93
4 2 7 13 14 15 16 17 19 20 23 30 38 40 41 45 46 51 52 53 57 61 62 63 66 70 72 78 91 97 100
EOF